data/KSEM09/005.cnf.opb
* #variable= 20 #constraint= 35 #product= 95 sizeproduct= 20
min: 1 x2 x1 1 x4 x3 1 x6 x5 1 x8 x7 1 x10 x9 1 x12 x11 1 x14 x13 1 x16 x15 1 x18 x17 1 x20 x19 ;
1 x2 ~x1 1 x2 x1 >= 1;
1 x4 ~x3 1 x4 x3 >= 1;
1 x6 ~x5 1 x6 x5 >= 1;
1 x8 ~x7 1 x8 x7 >= 1;
1 x10 ~x9 1 x10 x9 >= 1;
1 x12 ~x11 1 x12 x11 >= 1;
1 x14 ~x13 1 x14 x13 >= 1;
1 x16 ~x15 1 x16 x15 >= 1;
1 x18 ~x17 1 x18 x17 >= 1;
1 x20 ~x19 1 x20 x19 >= 1;
1 x1 ~x2 1 x11 ~x12 1 x1 x2 x11 x12 >= 1;
1 x1 ~x2 1 x13 ~x14 1 x1 x2 x13 x14 >= 1;
1 x1 ~x2 1 x15 ~x16 1 x1 x2 x15 x16 >= 1;
1 x1 ~x2 1 x17 ~x18 1 x1 x2 x17 x18 >= 1;
1 x1 ~x2 1 x19 ~x20 1 x1 x2 x19 x20 >= 1;
1 x3 ~x4 1 x11 ~x12 1 x3 x4 x11 x12 >= 1;
1 x3 ~x4 1 x13 ~x14 1 x3 x4 x13 x14 >= 1;
1 x3 ~x4 1 x15 ~x16 1 x3 x4 x15 x16 >= 1;
1 x3 ~x4 1 x17 ~x18 1 x3 x4 x17 x18 >= 1;
1 x3 ~x4 1 x19 ~x20 1 x3 x4 x19 x20 >= 1;
1 x5 ~x6 1 x11 ~x12 1 x5 x6 x11 x12 >= 1;
1 x5 ~x6 1 x13 ~x14 1 x5 x6 x13 x14 >= 1;
1 x5 ~x6 1 x15 ~x16 1 x5 x6 x15 x16 >= 1;
1 x5 ~x6 1 x17 ~x18 1 x5 x6 x17 x18 >= 1;
1 x5 ~x6 1 x19 ~x20 1 x5 x6 x19 x20 >= 1;
1 x7 ~x8 1 x11 ~x12 1 x7 x8 x11 x12 >= 1;
1 x7 ~x8 1 x13 ~x14 1 x7 x8 x13 x14 >= 1;
1 x7 ~x8 1 x15 ~x16 1 x7 x8 x15 x16 >= 1;
1 x7 ~x8 1 x17 ~x18 1 x7 x8 x17 x18 >= 1;
1 x7 ~x8 1 x19 ~x20 1 x7 x8 x19 x20 >= 1;
1 x9 ~x10 1 x11 ~x12 1 x9 x10 x11 x12 >= 1;
1 x9 ~x10 1 x13 ~x14 1 x9 x10 x13 x14 >= 1;
1 x9 ~x10 1 x15 ~x16 1 x9 x10 x15 x16 >= 1;
1 x9 ~x10 1 x17 ~x18 1 x9 x10 x17 x18 >= 1;
1 x9 ~x10 1 x19 ~x20 1 x9 x10 x19 x20 >= 1;
